decision_x1=[0,4];
decision_x2=[0,4];
decision_x3=[0,4];
decision_x4=[0,4];
decision_x5=[0,4];
decision_x6=[0,4];
random_y1=[0,4];
random_y2=[0,4];
random_y3=[0,4];
constraint_x4_x2=[
0,1,5.9|
0,2,3.7|
0,3,6.3|
0,4,8.3|
1,0,4.6|
1,2,6.1|
1,3,8.8|
1,4,0.95|
2,0,5.9|
2,1,0.71|
2,3,2.6|
2,4,0.12|
3,0,4.9|
3,1,8.7|
3,2,6.3|
3,4,1.4|
4,0,7.3|
4,1,2.4|
4,2,8.7|
4,3,9.1|
];
constraint_x5_x2=[
0,1,8.7|
0,2,2.6|
0,3,6.9|
0,4,8|
1,0,8.3|
1,2,1|
1,3,2.4|
1,4,1.8|
2,0,4.9|
2,1,5.1|
2,3,6.8|
2,4,4.6|
3,0,1.4|
3,1,5.7|
3,2,1.5|
3,4,1|
4,0,3.1|
4,1,2.9|
4,2,6.1|
4,3,9|
];
constraint_x5_x3=[
0,1,6.5|
0,2,7.5|
0,3,4.7|
0,4,6.7|
1,0,0.088|
1,2,8.6|
1,3,4.7|
1,4,2.8|
2,0,5.7|
2,1,4.8|
2,3,9.6|
2,4,5.7|
3,0,7.7|
3,1,1.2|
3,2,6.7|
3,4,3.4|
4,0,0.14|
4,1,1.6|
4,2,5.6|
4,3,8.4|
];
constraint_x5_x4=[
0,1,3.9|
0,2,6|
0,3,1.9|
0,4,4.8|
1,0,8.1|
1,2,5.6|
1,3,1.3|
1,4,4.4|
2,0,7.7|
2,1,0.85|
2,3,9.7|
2,4,5|
3,0,9.6|
3,1,10|
3,2,8.5|
3,4,5.8|
4,0,4.4|
4,1,9.3|
4,2,2.2|
4,3,4.2|
];
constraint_x6_x1=[
0,1,5.8|
0,2,3.7|
0,3,6|
0,4,3.2|
1,0,4.5|
1,2,2.6|
1,3,9.5|
1,4,4.9|
2,0,3.6|
2,1,5.8|
2,3,9.6|
2,4,9.4|
3,0,5.5|
3,1,3.6|
3,2,8.4|
3,4,8.1|
4,0,0.56|
4,1,2.9|
4,2,6.6|
4,3,2|
];
constraint_x6_x3=[
0,1,1.7|
0,2,2.7|
0,3,1.3|
0,4,2.5|
1,0,6.4|
1,2,6.2|
1,3,7.3|
1,4,2.5|
2,0,1.8|
2,1,4.4|
2,3,6.1|
2,4,3.9|
3,0,6.4|
3,1,1.1|
3,2,4.3|
3,4,9.7|
4,0,2|
4,1,5|
4,2,3.2|
4,3,6.3|
];
constraint_x6_x4=[
0,1,0.62|
0,2,0.34|
0,3,1.7|
0,4,5.8|
1,0,9.6|
1,2,3|
1,3,5.7|
1,4,6|
2,0,4|
2,1,7.1|
2,3,3.6|
2,4,5.2|
3,0,1.8|
3,1,5.8|
3,2,4.5|
3,4,1.3|
4,0,4.5|
4,1,1.4|
4,2,6|
4,3,2|
];
constraint_x6_x5=[
0,1,9.7|
0,2,8.7|
0,3,1.6|
0,4,8.4|
1,0,5.3|
1,2,2.8|
1,3,3|
1,4,4.7|
2,0,8.4|
2,1,5.3|
2,3,3.8|
2,4,2.2|
3,0,2.1|
3,1,0.67|
3,2,4.6|
3,4,8.6|
4,0,9.3|
4,1,9.5|
4,2,0.57|
4,3,0.54|
];
constraint_x1_y1=[
0,0,4.2|
0,1,8.7|
0,2,4.8|
0,3,7.1|
0,4,7|
1,0,7.1|
1,1,1.4|
1,2,0.97|
1,3,9.6|
1,4,6.9|
2,0,6.1|
2,1,5.9|
2,2,2.5|
2,3,4.7|
2,4,9.2|
3,0,1.1|
3,1,6.9|
3,2,1|
3,3,1.4|
3,4,0.63|
4,0,6.3|
4,1,3.2|
4,2,1.6|
4,3,5.6|
4,4,0.03|
];
constraint_x2_y2=[
0,0,4|
0,1,1.5|
0,2,7|
0,3,1.2|
0,4,1.6|
1,0,3.2|
1,1,6|
1,2,6.9|
1,3,6|
1,4,8.2|
2,0,6.6|
2,1,0.5|
2,2,9.1|
2,3,3.4|
2,4,5.3|
3,0,8.2|
3,1,5.2|
3,2,3.3|
3,3,0.63|
3,4,3.6|
4,0,5|
4,1,5.1|
4,2,9.9|
4,3,10|
4,4,5.8|
];
constraint_x3_y3=[
0,0,9.3|
0,1,5.5|
0,2,3.5|
0,3,6.9|
0,4,4.2|
1,0,6.1|
1,1,3.3|
1,2,5.7|
1,3,3.4|
1,4,9|
2,0,6.4|
2,1,3|
2,2,7.2|
2,3,7.7|
2,4,0.051|
3,0,5.5|
3,1,9.7|
3,2,7.2|
3,3,7.2|
3,4,4.9|
4,0,4.4|
4,1,1.2|
4,2,1.4|
4,3,7.9|
4,4,7.6|
];
initial_distribution_y1=[0.24,0.12,0.073,0.38,0.19];
initial_distribution_y2=[0.052,0.3,0.088,0.25,0.31];
initial_distribution_y3=[0.16,0.02,0.11,0.39,0.31];
transition_y1=[
0.052,0.16,0.24,0.23,0.31|
0.28,0.38,0.091,0.056,0.19|
0.053,0.25,0.077,0.32,0.3|
0.29,0.085,0.15,0.26,0.22|
0.25,0.2,0.13,0.26,0.16|
];
transition_y2=[
0.39,0.094,0.013,0.3,0.2|
0.19,0.22,0.27,0.052,0.27|
0.085,0.3,0.25,0.069,0.29|
0.53,0.071,0.094,0.29,0.0081|
0.35,0.037,0.11,0.19,0.3|
];
transition_y3=[
0.27,0.099,0.29,0.34,0.0096|
0.18,0.13,0.27,0.26,0.16|
0.017,0.043,0.39,0.3,0.25|
0.22,0.23,0.087,0.1,0.36|
0.029,0.3,0.25,0.13,0.28|
];
